
Gurobi 11.0.3 (linux64) logging started Fri Nov 22 14:37:04 2024

Set parameter LogFile to value "/home/yihong/Coding/OR_SUC/SUC_results_bigM100000_thread4/case24_ieee_rts_theta0.5_epsilon0.025_gurobi_seed710000_num_gen100_N_WDR100_load_scaling_factor1_proposed_T16quadra_cost.txt"
Set parameter TimeLimit to value 3600
Gurobi Optimizer version 11.0.3 build v11.0.3rc0 (linux64 - "Ubuntu 20.04.6 LTS")

CPU model: AMD EPYC 7532 32-Core Processor, instruction set [SSE2|AVX|AVX2]
Thread count: 64 physical cores, 128 logical processors, using up to 4 threads

Optimize a model with 34462 rows, 19941 columns and 471930 nonzeros
Model fingerprint: 0x0d83d106
Model has 1600 quadratic constraints
Variable types: 18341 continuous, 1600 integer (1600 binary)
Coefficient statistics:
  Matrix range     [3e-04, 2e+03]
  QMatrix range    [2e-03, 8e-03]
  QLMatrix range   [1e-01, 6e+01]
  Objective range  [1e+00, 1e+00]
  Bounds range     [1e+00, 1e+00]
  RHS range        [1e+00, 9e+03]
Presolve removed 27972 rows and 8683 columns
Presolve time: 0.17s
Presolved: 6490 rows, 11258 columns, 41067 nonzeros
Presolved model has 1600 quadratic constraint(s)
Variable types: 9658 continuous, 1600 integer (1600 binary)

Root relaxation: objective 4.704468e+04, 5300 iterations, 0.12 seconds (0.17 work units)

    Nodes    |    Current Node    |     Objective Bounds      |     Work
 Expl Unexpl |  Obj  Depth IntInf | Incumbent    BestBd   Gap | It/Node Time

H    0     0                    449788.95600 47044.6777  89.5%     -    0s
*    0     0               0    449788.95600 47044.6777  89.5%     -    0s
     0     0 269155.220    0  547 449788.956 269155.220  40.2%     -    0s
     0     0 428388.502    0  153 449788.956 428388.502  4.76%     -    0s
     0     0 428431.713    0   23 449788.956 428431.713  4.75%     -    0s
     0     0 428486.831    0   22 449788.956 428486.831  4.74%     -    1s
     0     0 428489.412    0   22 449788.956 428489.412  4.74%     -    1s
     0     0 428489.412    0   22 449788.956 428489.412  4.74%     -    1s
     0     0 428489.412    0   22 449788.956 428489.412  4.74%     -    1s
     0     2 428489.412    0   22 449788.956 428489.412  4.74%     -    1s
H  152   221                    428814.33002 428492.547  0.08%  21.5    2s
*  152   221              48    428814.33002 428492.547  0.08%  21.5    2s

Cutting planes:
  Gomory: 10
  Lift-and-project: 14
  Implied bound: 194
  MIR: 14
  Flow cover: 100
  RLT: 321
  Relax-and-lift: 45

Explored 252 nodes (18377 simplex iterations) in 3.00 seconds (3.60 work units)
Thread count was 4 (of 128 available processors)

Solution count 3: 428814 428814 449789 

Optimal solution found (tolerance 1.00e-03)
Warning: max constraint violation (7.5216e-08) exceeds tolerance
Best objective 4.288143300171e+05, best bound 4.284932596731e+05, gap 0.0749%
